(set-info :smt-lib-version 2.6)
(set-logic QF_LRA)
(set-info :source | TTA Startup. Bruno Dutertre (bruno@csl.sri.com) |)
(set-info :category "industrial")
(set-info :status unsat)
(declare-fun x_0 () Real)
(declare-fun x_1 () Real)
(declare-fun x_2 () Real)
(declare-fun x_3 () Real)
(declare-fun x_4 () Real)
(declare-fun x_5 () Real)
(declare-fun x_6 () Real)
(declare-fun x_7 () Real)
(declare-fun x_8 () Real)
(declare-fun x_9 () Real)
(declare-fun x_10 () Real)
(declare-fun x_11 () Real)
(declare-fun x_12 () Real)
(declare-fun x_13 () Real)
(declare-fun x_14 () Real)
(declare-fun x_15 () Real)
(declare-fun x_16 () Bool)
(declare-fun x_17 () Bool)
(declare-fun x_18 () Bool)
(declare-fun x_19 () Real)
(declare-fun x_20 () Real)
(declare-fun x_21 () Real)
(declare-fun x_22 () Real)
(declare-fun x_23 () Real)
(declare-fun x_24 () Real)
(declare-fun x_25 () Bool)
(declare-fun x_26 () Real)
(declare-fun x_27 () Bool)
(declare-fun x_28 () Bool)
(declare-fun x_29 () Bool)
(declare-fun x_30 () Bool)
(declare-fun x_31 () Real)
(declare-fun x_32 () Real)
(declare-fun x_33 () Real)
(declare-fun x_34 () Real)
(declare-fun x_35 () Real)
(declare-fun x_36 () Real)
(declare-fun x_37 () Real)
(declare-fun x_38 () Real)
(declare-fun x_39 () Real)
(declare-fun x_40 () Real)
(declare-fun x_41 () Real)
(declare-fun x_42 () Real)
(declare-fun x_43 () Real)
(declare-fun x_44 () Real)
(declare-fun x_45 () Real)
(declare-fun x_46 () Real)
(declare-fun x_47 () Real)
(declare-fun x_48 () Real)
(declare-fun x_49 () Real)
(declare-fun x_50 () Real)
(declare-fun x_51 () Real)
(declare-fun x_52 () Real)
(declare-fun x_53 () Real)
(declare-fun x_54 () Real)
(declare-fun x_55 () Real)
(declare-fun x_56 () Real)
(declare-fun x_57 () Bool)
(declare-fun x_58 () Real)
(declare-fun x_59 () Bool)
(declare-fun x_60 () Bool)
(declare-fun x_61 () Bool)
(declare-fun x_62 () Bool)
(declare-fun x_63 () Real)
(declare-fun x_64 () Real)
(declare-fun x_65 () Real)
(declare-fun x_66 () Real)
(declare-fun x_67 () Real)
(declare-fun x_68 () Real)
(declare-fun x_69 () Real)
(declare-fun x_70 () Real)
(declare-fun x_71 () Real)
(declare-fun x_72 () Real)
(declare-fun x_73 () Real)
(declare-fun x_74 () Real)
(assert (let ((?v_124 (= x_0 2)) (?v_165 (= x_3 2)) (?v_187 (= x_7 2)) (?v_207 (= x_10 2)) (?v_227 (= x_13 2)) (?v_106 (= x_0 0)) (?v_119 (= x_0 1)) (?v_155 (= x_3 0)) (?v_161 (= x_3 1)) (?v_178 (= x_7 0)) (?v_184 (= x_7 1)) (?v_198 (= x_10 0)) (?v_204 (= x_10 1)) (?v_218 (= x_13 0)) (?v_224 (= x_13 1)) (?v_90 (< x_1 x_2)) (?v_91 (< x_1 x_4)) (?v_92 (< x_1 x_8)) (?v_93 (< x_1 x_11)) (?v_94 (< x_1 x_14)) (?v_129 (= x_0 3)) (?v_116 (= x_1 x_2)) (?v_170 (= x_3 3)) (?v_157 (= x_1 x_4)) (?v_192 (= x_7 3)) (?v_180 (= x_1 x_8)) (?v_212 (= x_10 3)) (?v_200 (= x_1 x_11)) (?v_232 (= x_13 3)) (?v_220 (= x_1 x_14)) (?v_123 (= x_24 0)) (?v_10 (= x_22 5)) (?v_11 (= x_22 4)) (?v_12 (= x_22 3)) (?v_13 (= x_22 2)) (?v_117 (= x_38 2))) (let ((?v_244 (not ?v_117)) (?v_158 (= x_39 2))) (let ((?v_245 (not ?v_158)) (?v_181 (= x_40 2))) (let ((?v_246 (not ?v_181)) (?v_201 (= x_41 2))) (let ((?v_247 (not ?v_201)) (?v_221 (= x_42 2))) (let ((?v_248 (not ?v_221)) (?v_285 (not (< x_43 (+ x_44 30)))) (?v_287 (not (< x_45 (+ x_44 33)))) (?v_289 (not (< x_46 (+ x_44 36)))) (?v_291 (not (< x_47 (+ x_44 39)))) (?v_293 (not (< x_48 (+ x_44 42)))) (?v_103 (= x_38 1)) (?v_154 (= x_39 1)) (?v_177 (= x_40 1)) (?v_197 (= x_41 1)) (?v_217 (= x_42 1))) (let ((?v_249 (not ?v_103)) (?v_250 (not ?v_154)) (?v_251 (not ?v_177)) (?v_252 (not ?v_197)) (?v_253 (not ?v_217)) (?v_57 (= x_49 x_50)) (?v_60 (= x_49 x_51)) (?v_62 (= x_52 x_53)) (?v_63 (= x_52 x_49)) (?v_64 (= x_52 x_50)) (?v_65 (= x_52 x_51)) (?v_66 (= x_50 x_53)) (?v_67 (= x_50 x_49)) (?v_68 (= x_50 x_52)) (?v_69 (= x_50 x_51)) (?v_70 (= x_51 x_53)) (?v_71 (= x_51 x_49)) (?v_72 (= x_51 x_52)) (?v_73 (= x_51 x_50)) (?v_325 (< x_37 x_43))) (let ((?v_36 (not ?v_325)) (?v_302 (= x_53 x_55)) (?v_326 (< x_37 x_45))) (let ((?v_49 (not ?v_326)) (?v_304 (= x_49 x_55)) (?v_328 (< x_37 x_46))) (let ((?v_53 (not ?v_328)) (?v_306 (= x_52 x_55)) (?v_330 (< x_37 x_47))) (let ((?v_56 (not ?v_330)) (?v_308 (= x_50 x_55)) (?v_332 (< x_37 x_48))) (let ((?v_59 (not ?v_332)) (?v_310 (= x_51 x_55)) (?v_28 (= x_38 3))) (let ((?v_34 (not ?v_28)) (?v_37 (not (= x_37 x_43))) (?v_29 (= x_39 3))) (let ((?v_35 (not ?v_29)) (?v_39 (not (= x_37 x_45))) (?v_31 (= x_40 3))) (let ((?v_40 (not ?v_31)) (?v_42 (not (= x_37 x_46))) (?v_32 (= x_41 3))) (let ((?v_43 (not ?v_32)) (?v_45 (not (= x_37 x_47))) (?v_33 (= x_42 3))) (let ((?v_46 (not ?v_33)) (?v_48 (not (= x_37 x_48))) (?v_266 (not (<= (- x_45 x_43) x_23))) (?v_267 (not (<= (- x_46 x_43) x_23))) (?v_268 (not (<= (- x_47 x_43) x_23))) (?v_269 (not (<= (- x_48 x_43) x_23))) (?v_270 (not (<= (- x_46 x_45) x_23))) (?v_271 (not (<= (- x_47 x_45) x_23))) (?v_272 (not (<= (- x_48 x_45) x_23))) (?v_273 (not (<= (- x_47 x_46) x_23))) (?v_274 (not (<= (- x_48 x_46) x_23))) (?v_275 (not (<= (- x_48 x_47) x_23))) (?v_279 (not (< (- x_43 x_44) 15))) (?v_261 (<= (- x_43 x_37) 15)) (?v_280 (not (< (- x_45 x_44) 18))) (?v_262 (<= (- x_45 x_37) 18)) (?v_281 (not (< (- x_46 x_44) 21))) (?v_263 (<= (- x_46 x_37) 21)) (?v_282 (not (< (- x_47 x_44) 24))) (?v_264 (<= (- x_47 x_37) 24)) (?v_283 (not (< (- x_48 x_44) 27))) (?v_265 (<= (- x_48 x_37) 27)) (?v_38 (= x_53 x_49)) (?v_41 (= x_53 x_52)) (?v_44 (= x_53 x_50)) (?v_47 (= x_53 x_51)) (?v_50 (= x_49 x_53)) (?v_54 (= x_49 x_52)) (?v_284 (and x_57 (< x_58 x_43))) (?v_286 (and x_59 (< x_58 x_45))) (?v_288 (and x_60 (< x_58 x_46))) (?v_290 (and x_61 (< x_58 x_47))) (?v_292 (and x_62 (< x_58 x_48))) (?v_74 (< x_53 1)) (?v_299 (or (or (or (or x_57 x_59) x_60) x_61) x_62)) (?v_19 (= x_55 5)) (?v_20 (= x_55 4)) (?v_21 (= x_55 3)) (?v_22 (= x_55 2))) (let ((?v_300 (ite ?v_19 x_48 (ite ?v_20 x_47 (ite ?v_21 x_46 (ite ?v_22 x_45 x_43))))) (?v_134 (not x_57)) (?v_175 (not x_59)) (?v_195 (not x_60)) (?v_215 (not x_61)) (?v_235 (not x_62)) (?v_327 (= x_43 x_45)) (?v_329 (= x_43 x_46)) (?v_331 (= x_43 x_47)) (?v_333 (= x_43 x_48)) (?v_336 (= x_45 x_43)) (?v_338 (= x_45 x_46)) (?v_340 (= x_45 x_47)) (?v_342 (= x_45 x_48)) (?v_343 (= x_46 x_43)) (?v_344 (= x_46 x_45)) (?v_345 (= x_46 x_47)) (?v_346 (= x_46 x_48)) (?v_347 (= x_47 x_43)) (?v_348 (= x_47 x_45)) (?v_349 (= x_47 x_46)) (?v_350 (= x_47 x_48)) (?v_351 (= x_48 x_43)) (?v_352 (= x_48 x_45)) (?v_353 (= x_48 x_46)) (?v_354 (= x_48 x_47)) (?v_23 (= x_53 5))) (let ((?v_311 (ite ?v_23 1 (+ x_53 1))) (?v_24 (= x_49 5))) (let ((?v_312 (ite ?v_24 1 (+ x_49 1))) (?v_25 (= x_52 5))) (let ((?v_313 (ite ?v_25 1 (+ x_52 1))) (?v_26 (= x_50 5))) (let ((?v_314 (ite ?v_26 1 (+ x_50 1))) (?v_27 (= x_51 5))) (let ((?v_315 (ite ?v_27 1 (+ x_51 1))) (?v_141 (= x_24 1)) (?v_14 (= x_5 5))) (let ((?v_85 (ite ?v_14 1 (+ x_5 1))) (?v_15 (= x_6 5))) (let ((?v_86 (ite ?v_15 1 (+ x_6 1))) (?v_16 (= x_9 5))) (let ((?v_87 (ite ?v_16 1 (+ x_9 1))) (?v_17 (= x_12 5))) (let ((?v_88 (ite ?v_17 1 (+ x_12 1))) (?v_18 (= x_15 5))) (let ((?v_89 (ite ?v_18 1 (+ x_15 1))) (?v_107 (and (= x_56 x_24) (= x_58 x_26)))) (let ((?v_156 (and ?v_107 (= x_57 x_25))) (?v_108 (= x_59 x_27))) (let ((?v_179 (and ?v_156 ?v_108)) (?v_109 (= x_60 x_28))) (let ((?v_199 (and ?v_179 ?v_109)) (?v_110 (= x_61 x_29))) (let ((?v_219 (and ?v_199 ?v_110)) (?v_111 (= x_62 x_30)) (?v_112 (= x_55 x_22)) (?v_113 (= x_44 x_20))) (let ((?v_104 (and (and (and ?v_219 ?v_111) ?v_112) ?v_113)) (?v_169 (= x_49 x_22)) (?v_191 (= x_52 x_22)) (?v_98 (= x_37 x_2)) (?v_99 (= x_37 x_4)) (?v_100 (= x_37 x_8)) (?v_101 (= x_37 x_11)) (?v_102 (= x_37 x_14)) (?v_211 (= x_50 x_22)) (?v_231 (= x_51 x_22)) (?v_120 (= x_1 x_26)) (?v_151 (= x_42 x_13)) (?v_152 (= x_51 x_15)) (?v_153 (= x_48 x_14)) (?v_114 (= x_38 x_0)) (?v_105 (= x_53 x_5)) (?v_115 (= x_43 x_2)) (?v_142 (= x_39 x_3)) (?v_143 (= x_49 x_6)) (?v_144 (= x_45 x_4)) (?v_145 (= x_40 x_7)) (?v_146 (= x_52 x_9)) (?v_147 (= x_46 x_8)) (?v_148 (= x_41 x_10)) (?v_149 (= x_50 x_12)) (?v_150 (= x_47 x_11)) (?v_128 (= x_53 x_22)) (?v_96 (and (and (and (and (not x_25) (not x_27)) (not x_28)) (not x_29)) (not x_30))) (?v_118 (= x_57 false))) (let ((?v_122 (and (and (and (and (and (and (and ?v_107 ?v_118) ?v_108) ?v_109) ?v_110) ?v_111) ?v_112) ?v_113)) (?v_160 (= x_59 false))) (let ((?v_163 (and (and (and (and (and (and ?v_156 ?v_160) ?v_109) ?v_110) ?v_111) ?v_112) ?v_113)) (?v_183 (= x_60 false))) (let ((?v_186 (and (and (and (and (and ?v_179 ?v_183) ?v_110) ?v_111) ?v_112) ?v_113)) (?v_203 (= x_61 false))) (let ((?v_206 (and (and (and (and ?v_199 ?v_203) ?v_111) ?v_112) ?v_113)) (?v_223 (= x_62 false))) (let ((?v_226 (and (and (and ?v_219 ?v_223) ?v_112) ?v_113)) (?v_1 (or (not ?v_129) (not ?v_90))) (?v_0 (or (not ?v_170) (not ?v_91))) (?v_2 (or (not ?v_192) (not ?v_92))) (?v_3 (or (not ?v_212) (not ?v_93))) (?v_4 (or (not ?v_232) (not ?v_94))) (?v_7 (not x_16)) (?v_5 (not x_17))) (let ((?v_8 (and ?v_7 ?v_5)) (?v_6 (not x_18))) (let ((?v_237 (and ?v_8 ?v_6)) (?v_9 (and x_16 ?v_5))) (let ((?v_254 (and ?v_9 ?v_6)) (?v_276 (and (and ?v_7 x_17) ?v_6)) (?v_295 (and (and x_16 x_17) ?v_6)) (?v_297 (and ?v_8 x_18)) (?v_321 (and ?v_9 x_18)) (?v_323 (or x_16 x_17)) (?v_324 (or ?v_7 x_17)) (?v_335 (and ?v_28 ?v_325)) (?v_334 (and ?v_29 ?v_326)) (?v_337 (and ?v_31 ?v_328)) (?v_339 (and ?v_32 ?v_330)) (?v_341 (and ?v_33 ?v_332)) (?v_238 (and (and (and (and ?v_134 ?v_175) ?v_195) ?v_215) ?v_235)) (?v_301 (or ?v_34 ?v_36)) (?v_303 (or ?v_35 ?v_49)) (?v_305 (or ?v_40 ?v_53)) (?v_307 (or ?v_43 ?v_56)) (?v_309 (or ?v_46 ?v_59)) (?v_76 (and ?v_249 ?v_244)) (?v_77 (and ?v_250 ?v_245)) (?v_79 (and ?v_251 ?v_246)) (?v_80 (and ?v_252 ?v_247)) (?v_81 (and ?v_253 ?v_248)) (?v_30 (+ x_37 3)) (?v_51 (+ x_43 3)) (?v_52 (+ x_45 3)) (?v_55 (+ x_46 3)) (?v_58 (+ x_47 3)) (?v_61 (+ x_48 3)) (?v_75 (+ (+ x_43 (* (ite ?v_74 (- (- 1 x_53) 1) (- (+ (- 5 x_53) 1) 1)) 3)) x_23)) (?v_78 (+ (+ x_45 (* (ite (< x_49 2) (- (- 2 x_49) 1) (- (+ (- 5 x_49) 2) 1)) 3)) x_23)) (?v_82 (+ (+ x_46 (* (ite (< x_52 3) (- (- 3 x_52) 1) (- (+ (- 5 x_52) 3) 1)) 3)) x_23)) (?v_83 (+ (+ x_47 (* (ite (< x_50 4) (- (- 4 x_50) 1) (- (+ (- 5 x_50) 4) 1)) 3)) x_23)) (?v_84 (+ (+ x_48 (* (ite (< x_51 5) (- x_54 1) (- (+ x_54 5) 1)) 3)) x_23))) (let ((?v_298 (and (and (and (and (and (and (and (and (and (and (and (and (and (and (and (and ?v_238 (or (or (or (or ?v_28 ?v_29) ?v_31) ?v_32) ?v_33)) (or ?v_34 (<= x_43 ?v_30))) (or ?v_35 (<= x_45 ?v_30))) (or ?v_40 (<= x_46 ?v_30))) (or ?v_43 (<= x_47 ?v_30))) (or ?v_46 (<= x_48 ?v_30))) (or ?v_34 (and (and (and (and (or (or ?v_301 ?v_37) (and (= x_53 x_64) (= x_43 ?v_51))) (or ?v_35 (and (and (or (or ?v_36 ?v_49) (and ?v_38 ?v_327)) (or (or ?v_37 ?v_39) ?v_38)) (or (or ?v_36 ?v_39) (and (= x_53 x_65) (= x_43 ?v_52)))))) (or ?v_40 (and (and (or (or ?v_36 ?v_53) (and ?v_41 ?v_329)) (or (or ?v_37 ?v_42) ?v_41)) (or (or ?v_36 ?v_42) (and (= x_53 x_66) (= x_43 ?v_55)))))) (or ?v_43 (and (and (or (or ?v_36 ?v_56) (and ?v_44 ?v_331)) (or (or ?v_37 ?v_45) ?v_44)) (or (or ?v_36 ?v_45) (and (= x_53 x_67) (= x_43 ?v_58)))))) (or ?v_46 (and (and (or (or ?v_36 ?v_59) (and ?v_47 ?v_333)) (or (or ?v_37 ?v_48) ?v_47)) (or (or ?v_36 ?v_48) (and (= x_53 x_68) (= x_43 ?v_61)))))))) (or ?v_35 (and (and (and (and (or ?v_34 (and (and (or (or ?v_49 ?v_36) (and ?v_50 ?v_336)) (or (or ?v_39 ?v_37) ?v_50)) (or (or ?v_49 ?v_37) (and (= x_49 x_64) (= x_45 ?v_51))))) (or (or ?v_303 ?v_39) (and (= x_49 x_65) (= x_45 ?v_52)))) (or ?v_40 (and (and (or (or ?v_49 ?v_53) (and ?v_54 ?v_338)) (or (or ?v_39 ?v_42) ?v_54)) (or (or ?v_49 ?v_42) (and (= x_49 x_66) (= x_45 ?v_55)))))) (or ?v_43 (and (and (or (or ?v_49 ?v_56) (and ?v_57 ?v_340)) (or (or ?v_39 ?v_45) ?v_57)) (or (or ?v_49 ?v_45) (and (= x_49 x_67) (= x_45 ?v_58)))))) (or ?v_46 (and (and (or (or ?v_49 ?v_59) (and ?v_60 ?v_342)) (or (or ?v_39 ?v_48) ?v_60)) (or (or ?v_49 ?v_48) (and (= x_49 x_68) (= x_45 ?v_61)))))))) (or ?v_40 (and (and (and (and (or ?v_34 (and (and (or (or ?v_53 ?v_36) (and ?v_62 ?v_343)) (or (or ?v_42 ?v_37) ?v_62)) (or (or ?v_53 ?v_37) (and (= x_52 x_64) (= x_46 ?v_51))))) (or ?v_35 (and (and (or (or ?v_53 ?v_49) (and ?v_63 ?v_344)) (or (or ?v_42 ?v_39) ?v_63)) (or (or ?v_53 ?v_39) (and (= x_52 x_65) (= x_46 ?v_52)))))) (or (or ?v_305 ?v_42) (and (= x_52 x_66) (= x_46 ?v_55)))) (or ?v_43 (and (and (or (or ?v_53 ?v_56) (and ?v_64 ?v_345)) (or (or ?v_42 ?v_45) ?v_64)) (or (or ?v_53 ?v_45) (and (= x_52 x_67) (= x_46 ?v_58)))))) (or ?v_46 (and (and (or (or ?v_53 ?v_59) (and ?v_65 ?v_346)) (or (or ?v_42 ?v_48) ?v_65)) (or (or ?v_53 ?v_48) (and (= x_52 x_68) (= x_46 ?v_61)))))))) (or ?v_43 (and (and (and (and (or ?v_34 (and (and (or (or ?v_56 ?v_36) (and ?v_66 ?v_347)) (or (or ?v_45 ?v_37) ?v_66)) (or (or ?v_56 ?v_37) (and (= x_50 x_64) (= x_47 ?v_51))))) (or ?v_35 (and (and (or (or ?v_56 ?v_49) (and ?v_67 ?v_348)) (or (or ?v_45 ?v_39) ?v_67)) (or (or ?v_56 ?v_39) (and (= x_50 x_65) (= x_47 ?v_52)))))) (or ?v_40 (and (and (or (or ?v_56 ?v_53) (and ?v_68 ?v_349)) (or (or ?v_45 ?v_42) ?v_68)) (or (or ?v_56 ?v_42) (and (= x_50 x_66) (= x_47 ?v_55)))))) (or (or ?v_307 ?v_45) (and (= x_50 x_67) (= x_47 ?v_58)))) (or ?v_46 (and (and (or (or ?v_56 ?v_59) (and ?v_69 ?v_350)) (or (or ?v_45 ?v_48) ?v_69)) (or (or ?v_56 ?v_48) (and (= x_50 x_68) (= x_47 ?v_61)))))))) (or ?v_46 (and (and (and (and (or ?v_34 (and (and (or (or ?v_59 ?v_36) (and ?v_70 ?v_351)) (or (or ?v_48 ?v_37) ?v_70)) (or (or ?v_59 ?v_37) (and (= x_51 x_64) (= x_48 ?v_51))))) (or ?v_35 (and (and (or (or ?v_59 ?v_49) (and ?v_71 ?v_352)) (or (or ?v_48 ?v_39) ?v_71)) (or (or ?v_59 ?v_39) (and (= x_51 x_65) (= x_48 ?v_52)))))) (or ?v_40 (and (and (or (or ?v_59 ?v_53) (and ?v_72 ?v_353)) (or (or ?v_48 ?v_42) ?v_72)) (or (or ?v_59 ?v_42) (and (= x_51 x_66) (= x_48 ?v_55)))))) (or ?v_43 (and (and (or (or ?v_59 ?v_56) (and ?v_73 ?v_354)) (or (or ?v_48 ?v_45) ?v_73)) (or (or ?v_59 ?v_45) (and (= x_51 x_67) (= x_48 ?v_58)))))) (or (or ?v_309 ?v_48) (and (= x_51 x_68) (= x_48 ?v_61)))))) (or ?v_34 (and (and (and (and (or ?v_76 (not (<= x_43 ?v_75))) (or ?v_77 (not (<= x_45 ?v_75)))) (or ?v_79 (not (<= x_46 ?v_75)))) (or ?v_80 (not (<= x_47 ?v_75)))) (or ?v_81 (not (<= x_48 ?v_75)))))) (or ?v_35 (and (and (and (and (or ?v_76 (not (<= x_43 ?v_78))) (or ?v_77 (not (<= x_45 ?v_78)))) (or ?v_79 (not (<= x_46 ?v_78)))) (or ?v_80 (not (<= x_47 ?v_78)))) (or ?v_81 (not (<= x_48 ?v_78)))))) (or ?v_40 (and (and (and (and (or ?v_76 (not (<= x_43 ?v_82))) (or ?v_77 (not (<= x_45 ?v_82)))) (or ?v_79 (not (<= x_46 ?v_82)))) (or ?v_80 (not (<= x_47 ?v_82)))) (or ?v_81 (not (<= x_48 ?v_82)))))) (or ?v_43 (and (and (and (and (or ?v_76 (not (<= x_43 ?v_83))) (or ?v_77 (not (<= x_45 ?v_83)))) (or ?v_79 (not (<= x_46 ?v_83)))) (or ?v_80 (not (<= x_47 ?v_83)))) (or ?v_81 (not (<= x_48 ?v_83)))))) (or ?v_46 (and (and (and (and (or ?v_76 (not (<= x_43 ?v_84))) (or ?v_77 (not (<= x_45 ?v_84)))) (or ?v_79 (not (<= x_46 ?v_84)))) (or ?v_80 (not (<= x_47 ?v_84)))) (or ?v_81 (not (<= x_48 ?v_84))))))) (?v_95 (and (and (and (and ?v_90 ?v_91) ?v_92) ?v_93) ?v_94)) (?v_97 (and (and (and (and (<= x_37 x_2) (<= x_37 x_4)) (<= x_37 x_8)) (<= x_37 x_11)) (<= x_37 x_14))) (?v_121 (+ x_1 15))) (let ((?v_125 (= x_43 ?v_121)) (?v_133 (= x_58 (ite ?v_96 (+ x_1 x_23) x_26)))) (let ((?v_159 (and (= x_56 (ite ?v_96 0 x_24)) ?v_133)) (?v_135 (= x_59 (or ?v_96 x_27))) (?v_136 (= x_60 (or ?v_96 x_28))) (?v_137 (= x_61 (or ?v_96 x_29))) (?v_138 (= x_62 (or ?v_96 x_30))) (?v_139 (= x_55 (ite ?v_96 1 x_22))) (?v_140 (= x_44 (ite ?v_96 x_1 x_20)))) (let ((?v_126 (and (and (and (and (and (and (and ?v_159 ?v_118) ?v_135) ?v_136) ?v_137) ?v_138) ?v_139) ?v_140)) (?v_130 (+ x_1 3))) (let ((?v_164 (- ?v_130 x_23))) (let ((?v_127 (= x_43 ?v_164)) (?v_131 (and ?v_129 ?v_116)) (?v_132 (= x_43 ?v_130)) (?v_173 (= x_56 (ite ?v_96 1 x_24))) (?v_162 (+ x_1 18))) (let ((?v_166 (= x_45 ?v_162)) (?v_174 (= x_57 (or ?v_96 x_25)))) (let ((?v_182 (and ?v_159 ?v_174)) (?v_176 (= x_55 (ite ?v_96 2 x_22)))) (let ((?v_167 (and (and (and (and (and (and ?v_182 ?v_160) ?v_136) ?v_137) ?v_138) ?v_176) ?v_140)) (?v_168 (= x_45 ?v_164)) (?v_171 (and ?v_170 ?v_157)) (?v_172 (= x_45 ?v_130)) (?v_185 (+ x_1 21))) (let ((?v_188 (= x_46 ?v_185)) (?v_202 (and ?v_182 ?v_135)) (?v_196 (= x_55 (ite ?v_96 3 x_22)))) (let ((?v_189 (and (and (and (and (and ?v_202 ?v_183) ?v_137) ?v_138) ?v_196) ?v_140)) (?v_190 (= x_46 ?v_164)) (?v_193 (and ?v_192 ?v_180)) (?v_194 (= x_46 ?v_130)) (?v_205 (+ x_1 24))) (let ((?v_208 (= x_47 ?v_205)) (?v_222 (and ?v_202 ?v_136)) (?v_216 (= x_55 (ite ?v_96 4 x_22)))) (let ((?v_209 (and (and (and (and ?v_222 ?v_203) ?v_138) ?v_216) ?v_140)) (?v_210 (= x_47 ?v_164)) (?v_213 (and ?v_212 ?v_200)) (?v_214 (= x_47 ?v_130)) (?v_225 (+ x_1 27))) (let ((?v_228 (= x_48 ?v_225)) (?v_236 (= x_55 (ite ?v_96 5 x_22)))) (let ((?v_229 (and (and (and (and ?v_222 ?v_137) ?v_223) ?v_236) ?v_140)) (?v_230 (= x_48 ?v_164)) (?v_233 (and ?v_232 ?v_220)) (?v_234 (= x_48 ?v_130)) (?v_239 (or (= x_38 0) ?v_103)) (?v_240 (or (= x_39 0) ?v_154)) (?v_241 (or (= x_40 0) ?v_177)) (?v_242 (or (= x_41 0) ?v_197)) (?v_243 (or (= x_42 0) ?v_217)) (?v_278 (and (and ?v_299 (= x_56 0)) (= x_63 2)))) (let ((?v_256 (or ?v_239 ?v_117)) (?v_257 (or ?v_240 ?v_158)) (?v_258 (or ?v_241 ?v_181)) (?v_259 (or ?v_242 ?v_201)) (?v_260 (or ?v_243 ?v_221))) (let ((?v_255 (and (and (and (and (and (and (and (and (and (and (and (and (and (and (and ?v_278 ?v_256) ?v_257) ?v_258) ?v_259) ?v_260) (or ?v_244 (and (and ?v_134 ?v_279) ?v_261))) (or ?v_245 (and (and ?v_175 ?v_280) ?v_262))) (or ?v_246 (and (and ?v_195 ?v_281) ?v_263))) (or ?v_247 (and (and ?v_215 ?v_282) ?v_264))) (or ?v_248 (and (and ?v_235 ?v_283) ?v_265))) (or (or ?v_249 x_57) ?v_285)) (or (or ?v_250 x_59) ?v_287)) (or (or ?v_251 x_60) ?v_289)) (or (or ?v_252 x_61) ?v_291)) (or (or ?v_253 x_62) ?v_293))) (?v_277 (and (and (and (and (and (and (and (and (and (and (and (and (and (and (and (and (and (and (and (and ?v_238 (or (or (or (or ?v_117 ?v_158) ?v_181) ?v_201) ?v_221)) ?v_256) ?v_257) ?v_258) ?v_259) ?v_260) (or ?v_244 ?v_261)) (or ?v_245 ?v_262)) (or ?v_246 ?v_263)) (or ?v_247 ?v_264)) (or ?v_248 ?v_265)) (or ?v_244 (and (and (and (or ?v_245 ?v_266) (or ?v_246 ?v_267)) (or ?v_247 ?v_268)) (or ?v_248 ?v_269)))) (or ?v_245 (and (and (or ?v_246 ?v_270) (or ?v_247 ?v_271)) (or ?v_248 ?v_272)))) (or ?v_246 (and (or ?v_247 ?v_273) (or ?v_248 ?v_274)))) (or (or ?v_247 ?v_248) ?v_275)) (or ?v_244 (and (and (and (and (or ?v_249 (not (<= (- x_43 x_43) x_23))) (or ?v_250 ?v_266)) (or ?v_251 ?v_267)) (or ?v_252 ?v_268)) (or ?v_253 ?v_269)))) (or ?v_245 (and (and (and (and (or ?v_249 (not (<= (- x_43 x_45) x_23))) (or ?v_250 (not (<= (- x_45 x_45) x_23)))) (or ?v_251 ?v_270)) (or ?v_252 ?v_271)) (or ?v_253 ?v_272)))) (or ?v_246 (and (and (and (and (or ?v_249 (not (<= (- x_43 x_46) x_23))) (or ?v_250 (not (<= (- x_45 x_46) x_23)))) (or ?v_251 (not (<= (- x_46 x_46) x_23)))) (or ?v_252 ?v_273)) (or ?v_253 ?v_274)))) (or ?v_247 (and (and (and (and (or ?v_249 (not (<= (- x_43 x_47) x_23))) (or ?v_250 (not (<= (- x_45 x_47) x_23)))) (or ?v_251 (not (<= (- x_46 x_47) x_23)))) (or ?v_252 (not (<= (- x_47 x_47) x_23)))) (or ?v_253 ?v_275)))) (or ?v_248 (and (and (and (and (or ?v_249 (not (<= (- x_43 x_48) x_23))) (or ?v_250 (not (<= (- x_45 x_48) x_23)))) (or ?v_251 (not (<= (- x_46 x_48) x_23)))) (or ?v_252 (not (<= (- x_47 x_48) x_23)))) (or ?v_253 (not (<= (- x_48 x_48) x_23))))))) (?v_316 (or (or ?v_249 ?v_284) ?v_285)) (?v_317 (or (or ?v_250 ?v_286) ?v_287)) (?v_318 (or (or ?v_251 ?v_288) ?v_289)) (?v_319 (or (or ?v_252 ?v_290) ?v_291)) (?v_320 (or (or ?v_253 ?v_292) ?v_293)) (?v_294 (+ x_44 3))) (let ((?v_296 (and (and (and (and (and (and (and (and (and (and (and (and (and (and (and (and (and ?v_278 (= ?v_300 (+ (+ x_44 (* (- x_55 1) 3)) 15))) (not (ite ?v_19 x_62 (ite ?v_20 x_61 (ite ?v_21 x_60 (ite ?v_22 x_59 x_57)))))) (or (or (or ?v_244 (= 1 x_55)) ?v_284) (and ?v_279 ?v_261))) (or (or (or ?v_245 (= 2 x_55)) ?v_286) (and ?v_280 ?v_262))) (or (or (or ?v_246 (= 3 x_55)) ?v_288) (and ?v_281 ?v_263))) (or (or (or ?v_247 (= 4 x_55)) ?v_290) (and ?v_282 ?v_264))) (or (or (or ?v_248 (= 5 x_55)) ?v_292) (and ?v_283 ?v_265))) ?v_316) ?v_317) ?v_318) ?v_319) ?v_320) (or ?v_34 (and ?v_302 (= x_43 ?v_294)))) (or ?v_35 (and ?v_304 (= x_45 ?v_294)))) (or ?v_40 (and ?v_306 (= x_46 ?v_294)))) (or ?v_43 (and ?v_308 (= x_47 ?v_294)))) (or ?v_46 (and ?v_310 (= x_48 ?v_294))))) (?v_322 (and (and (and (and (and (and (and (and (and (and (and (and (and (and (and (and (and (and (and (and (and (and (and (and ?v_299 (= x_56 1)) (= x_63 3)) (= (ite ?v_19 x_51 (ite ?v_20 x_50 (ite ?v_21 x_52 (ite ?v_22 x_49 x_53)))) x_55)) (= ?v_300 ?v_294)) (or ?v_301 (and ?v_302 (= x_43 ?v_300)))) (or ?v_303 (and ?v_304 (= x_45 ?v_300)))) (or ?v_305 (and ?v_306 (= x_46 ?v_300)))) (or ?v_307 (and ?v_308 (= x_47 ?v_300)))) (or ?v_309 (and ?v_310 (= x_48 ?v_300)))) (or (or ?v_34 ?v_37) (and (= ?v_311 x_55) (= ?v_300 ?v_51)))) (or (or ?v_35 ?v_39) (and (= ?v_312 x_55) (= ?v_300 ?v_52)))) (or (or ?v_40 ?v_42) (and (= ?v_313 x_55) (= ?v_300 ?v_55)))) (or (or ?v_43 ?v_45) (and (= ?v_314 x_55) (= ?v_300 ?v_58)))) (or (or ?v_46 ?v_48) (and (= ?v_315 x_55) (= ?v_300 ?v_61)))) ?v_316) ?v_317) ?v_318) ?v_319) ?v_320) (or ?v_244 ?v_284)) (or ?v_245 ?v_286)) (or ?v_246 ?v_288)) (or ?v_247 ?v_290)) (or ?v_248 ?v_292)))) (and (and (and (and (and (and (and (and (and (and (and (and (and (and (and (and (and (and (and (and (and (and (and (and (and (and (and (and (and (and (and (and (and (and (and (and (and (and (and (and (and (and (and (and (and (and (and (and (and (and (and (and (and (and (and (and (and (and (and (and (and (and (and (and (and (and (and (and (and (and (and (and (and (and (and (and (and (and (and (and (and (and (and (and (and (and (and (and (and (and (and (and (and (and (and (and (and (and (and (and (<= x_69 6) (>= x_69 0)) (<= x_63 3)) (>= x_63 0)) (<= x_56 1)) (>= x_56 0)) (<= x_42 3)) (>= x_42 0)) (<= x_41 3)) (>= x_41 0)) (<= x_40 3)) (>= x_40 0)) (<= x_39 3)) (>= x_39 0)) (<= x_38 3)) (>= x_38 0)) (<= x_31 3)) (>= x_31 0)) (<= x_24 1)) (>= x_24 0)) (<= x_19 6)) (>= x_19 0)) (<= x_13 3)) (>= x_13 0)) (<= x_10 3)) (>= x_10 0)) (<= x_7 3)) (>= x_7 0)) (<= x_3 3)) (>= x_3 0)) (<= x_0 3)) (>= x_0 0)) (or (or (or (or (= x_5 1) (= x_5 2)) (= x_5 3)) (= x_5 4)) ?v_14)) (not (< x_5 1))) (<= x_5 5)) (or (or (or (or (= x_6 1) (= x_6 2)) (= x_6 3)) (= x_6 4)) ?v_15)) (not (< x_6 1))) (<= x_6 5)) (or (or (or (or (= x_9 1) (= x_9 2)) (= x_9 3)) (= x_9 4)) ?v_16)) (not (< x_9 1))) (<= x_9 5)) (or (or (or (or (= x_12 1) (= x_12 2)) (= x_12 3)) (= x_12 4)) ?v_17)) (not (< x_12 1))) (<= x_12 5)) (or (or (or (or (= x_15 1) (= x_15 2)) (= x_15 3)) (= x_15 4)) ?v_18)) (not (< x_15 1))) (<= x_15 5)) (or (or (or (or (= x_22 1) ?v_13) ?v_12) ?v_11) ?v_10)) (not (< x_22 1))) (<= x_22 5)) (> x_23 0)) (< x_23 (/ 3 2))) (or (or (or (or (= x_49 1) (= x_49 2)) (= x_49 3)) (= x_49 4)) ?v_24)) (not (< x_49 1))) (<= x_49 5)) (or (or (or (or (= x_50 1) (= x_50 2)) (= x_50 3)) (= x_50 4)) ?v_26)) (not (< x_50 1))) (<= x_50 5)) (or (or (or (or (= x_51 1) (= x_51 2)) (= x_51 3)) (= x_51 4)) ?v_27)) (not (< x_51 1))) (<= x_51 5)) (or (or (or (or (= x_52 1) (= x_52 2)) (= x_52 3)) (= x_52 4)) ?v_25)) (not (< x_52 1))) (<= x_52 5)) (or (or (or (or (= x_53 1) (= x_53 2)) (= x_53 3)) (= x_53 4)) ?v_23)) (not ?v_74)) (<= x_53 5)) (or (or (or (or (= x_55 1) ?v_22) ?v_21) ?v_20) ?v_19)) (not (< x_55 1))) (<= x_55 5)) (or ?v_1 (and (and (and (or ?v_0 (and (= x_2 x_4) (= x_5 x_6))) (or ?v_2 (and (= x_2 x_8) (= x_5 x_9)))) (or ?v_3 (and (= x_2 x_11) (= x_5 x_12)))) (or ?v_4 (and (= x_2 x_14) (= x_5 x_15)))))) (or ?v_0 (and (and (and (or ?v_1 (and (= x_4 x_2) (= x_6 x_5))) (or ?v_2 (and (= x_4 x_8) (= x_6 x_9)))) (or ?v_3 (and (= x_4 x_11) (= x_6 x_12)))) (or ?v_4 (and (= x_4 x_14) (= x_6 x_15)))))) (or ?v_2 (and (and (and (or ?v_1 (and (= x_8 x_2) (= x_9 x_5))) (or ?v_0 (and (= x_8 x_4) (= x_9 x_6)))) (or ?v_3 (and (= x_8 x_11) (= x_9 x_12)))) (or ?v_4 (and (= x_8 x_14) (= x_9 x_15)))))) (or ?v_3 (and (and (and (or ?v_1 (and (= x_11 x_2) (= x_12 x_5))) (or ?v_0 (and (= x_11 x_4) (= x_12 x_6)))) (or ?v_2 (and (= x_11 x_8) (= x_12 x_9)))) (or ?v_4 (and (= x_11 x_14) (= x_12 x_15)))))) (or ?v_4 (and (and (and (or ?v_1 (and (= x_14 x_2) (= x_15 x_5))) (or ?v_0 (and (= x_14 x_4) (= x_15 x_6)))) (or ?v_2 (and (= x_14 x_8) (= x_15 x_9)))) (or ?v_3 (and (= x_14 x_11) (= x_15 x_12)))))) (or (or (or (or (or (= x_19 0) (= x_19 1)) (= x_19 2)) (= x_19 3)) (= x_19 4)) (= x_19 5))) (or (or (or (or (or ?v_237 ?v_254) ?v_276) ?v_295) ?v_297) ?v_321)) (= x_21 (- 5 x_15))) (= x_31 (ite ?v_10 x_13 (ite ?v_11 x_10 (ite ?v_12 x_7 (ite ?v_13 x_3 x_0)))))) (= x_32 ?v_85)) (= x_33 ?v_86)) (= x_34 ?v_87)) (= x_35 ?v_88)) (= x_36 ?v_89)) (= x_54 (- 5 x_51))) (= x_63 (ite ?v_19 x_42 (ite ?v_20 x_41 (ite ?v_21 x_40 (ite ?v_22 x_39 x_38)))))) (= x_64 ?v_311)) (= x_65 ?v_312)) (= x_66 ?v_313)) (= x_67 ?v_314)) (= x_68 ?v_315)) (= x_69 (ite ?v_298 4 6))) (= x_70 ?v_85)) (= x_71 ?v_86)) (= x_72 ?v_87)) (= x_73 ?v_88)) (= x_74 ?v_89)) (or (and (and (and (and (and (and (and (and (and (and (and (and (and (and (and (and (and (ite ?v_96 ?v_95 (and ?v_95 (< x_1 x_26))) (ite ?v_96 (and ?v_97 (or (or (or (or ?v_98 ?v_99) ?v_100) ?v_101) ?v_102)) (and (and ?v_97 (<= x_37 x_26)) (or (or (or (or (or (= x_37 x_26) ?v_98) ?v_99) ?v_100) ?v_101) ?v_102)))) ?v_114) ?v_142) ?v_145) ?v_148) ?v_151) ?v_105) ?v_143) ?v_146) ?v_149) ?v_152) ?v_115) ?v_144) ?v_147) ?v_150) ?v_153) ?v_104) (and (or (or (or (or (and (and (and (and (and (and (and (and (and (and (and (and (or (or (or (or (or (or (or (or (or (and (and (and (and (and ?v_106 ?v_116) ?v_103) (= x_43 (+ x_1 30))) ?v_104) ?v_105) (and (and (and (and (and (and ?v_106 x_25) ?v_120) ?v_122) ?v_114) ?v_105) ?v_115)) (and (and (and (and (and ?v_119 ?v_116) ?v_117) ?v_125) ?v_126) ?v_105)) (and (and (and (and (and (and (and ?v_119 x_25) ?v_123) ?v_120) ?v_117) (= x_43 (- ?v_121 x_23))) ?v_122) ?v_105)) (and (and (and (and (and (and (and ?v_124 x_25) ?v_123) ?v_120) ?v_28) ?v_127) ?v_128) ?v_122)) (and (and (and (and (and ?v_124 ?v_116) ?v_125) ?v_126) ?v_114) ?v_105)) (and (and (and (and (and (and (and (or ?v_119 ?v_124) x_25) ?v_141) ?v_120) ?v_28) ?v_127) ?v_128) ?v_122)) (and (and (and (and (and ?v_131 (not (= ?v_85 1))) ?v_132) (= x_53 x_70)) ?v_104) ?v_114)) (and (and (and (and (and (and (and (and (and (and (and (and (and ?v_131 (= x_70 1)) ?v_132) (= x_53 ?v_85)) ?v_173) ?v_133) ?v_134) ?v_135) ?v_136) ?v_137) ?v_138) ?v_139) ?v_140) ?v_114)) (and (and (and (and (and (and (and ?v_129 x_25) ?v_141) ?v_120) ?v_122) ?v_114) ?v_105) ?v_115)) ?v_142) ?v_143) ?v_144) ?v_145) ?v_146) ?v_147) ?v_148) ?v_149) ?v_150) ?v_151) ?v_152) ?v_153) (and (and (and (and (and (and (and (and (and (and (and (and (or (or (or (or (or (or (or (or (or (and (and (and (and (and ?v_155 ?v_157) ?v_154) (= x_45 (+ x_1 33))) ?v_104) ?v_143) (and (and (and (and (and (and ?v_155 x_27) ?v_120) ?v_163) ?v_142) ?v_143) ?v_144)) (and (and (and (and (and ?v_161 ?v_157) ?v_158) ?v_166) ?v_167) ?v_143)) (and (and (and (and (and (and (and ?v_161 x_27) ?v_123) ?v_120) ?v_158) (= x_45 (- ?v_162 x_23))) ?v_163) ?v_143)) (and (and (and (and (and (and (and ?v_165 x_27) ?v_123) ?v_120) ?v_29) ?v_168) ?v_169) ?v_163)) (and (and (and (and (and ?v_165 ?v_157) ?v_166) ?v_167) ?v_142) ?v_143)) (and (and (and (and (and (and (and (or ?v_161 ?v_165) x_27) ?v_141) ?v_120) ?v_29) ?v_168) ?v_169) ?v_163)) (and (and (and (and (and ?v_171 (not (= ?v_86 2))) ?v_172) (= x_49 x_71)) ?v_104) ?v_142)) (and (and (and (and (and (and (and (and (and (and (and (and (and ?v_171 (= x_71 2)) ?v_172) (= x_49 ?v_86)) ?v_173) ?v_133) ?v_174) ?v_175) ?v_136) ?v_137) ?v_138) ?v_176) ?v_140) ?v_142)) (and (and (and (and (and (and (and ?v_170 x_27) ?v_141) ?v_120) ?v_163) ?v_142) ?v_143) ?v_144)) ?v_114) ?v_105) ?v_115) ?v_145) ?v_146) ?v_147) ?v_148) ?v_149) ?v_150) ?v_151) ?v_152) ?v_153)) (and (and (and (and (and (and (and (and (and (and (and (and (or (or (or (or (or (or (or (or (or (and (and (and (and (and ?v_178 ?v_180) ?v_177) (= x_46 (+ x_1 36))) ?v_104) ?v_146) (and (and (and (and (and (and ?v_178 x_28) ?v_120) ?v_186) ?v_145) ?v_146) ?v_147)) (and (and (and (and (and ?v_184 ?v_180) ?v_181) ?v_188) ?v_189) ?v_146)) (and (and (and (and (and (and (and ?v_184 x_28) ?v_123) ?v_120) ?v_181) (= x_46 (- ?v_185 x_23))) ?v_186) ?v_146)) (and (and (and (and (and (and (and ?v_187 x_28) ?v_123) ?v_120) ?v_31) ?v_190) ?v_191) ?v_186)) (and (and (and (and (and ?v_187 ?v_180) ?v_188) ?v_189) ?v_145) ?v_146)) (and (and (and (and (and (and (and (or ?v_184 ?v_187) x_28) ?v_141) ?v_120) ?v_31) ?v_190) ?v_191) ?v_186)) (and (and (and (and (and ?v_193 (not (= ?v_87 3))) ?v_194) (= x_52 x_72)) ?v_104) ?v_145)) (and (and (and (and (and (and (and (and (and (and (and (and (and ?v_193 (= x_72 3)) ?v_194) (= x_52 ?v_87)) ?v_173) ?v_133) ?v_174) ?v_135) ?v_195) ?v_137) ?v_138) ?v_196) ?v_140) ?v_145)) (and (and (and (and (and (and (and ?v_192 x_28) ?v_141) ?v_120) ?v_186) ?v_145) ?v_146) ?v_147)) ?v_114) ?v_105) ?v_115) ?v_142) ?v_143) ?v_144) ?v_148) ?v_149) ?v_150) ?v_151) ?v_152) ?v_153)) (and (and (and (and (and (and (and (and (and (and (and (and (or (or (or (or (or (or (or (or (or (and (and (and (and (and ?v_198 ?v_200) ?v_197) (= x_47 (+ x_1 39))) ?v_104) ?v_149) (and (and (and (and (and (and ?v_198 x_29) ?v_120) ?v_206) ?v_148) ?v_149) ?v_150)) (and (and (and (and (and ?v_204 ?v_200) ?v_201) ?v_208) ?v_209) ?v_149)) (and (and (and (and (and (and (and ?v_204 x_29) ?v_123) ?v_120) ?v_201) (= x_47 (- ?v_205 x_23))) ?v_206) ?v_149)) (and (and (and (and (and (and (and ?v_207 x_29) ?v_123) ?v_120) ?v_32) ?v_210) ?v_211) ?v_206)) (and (and (and (and (and ?v_207 ?v_200) ?v_208) ?v_209) ?v_148) ?v_149)) (and (and (and (and (and (and (and (or ?v_204 ?v_207) x_29) ?v_141) ?v_120) ?v_32) ?v_210) ?v_211) ?v_206)) (and (and (and (and (and ?v_213 (not (= ?v_88 4))) ?v_214) (= x_50 x_73)) ?v_104) ?v_148)) (and (and (and (and (and (and (and (and (and (and (and (and (and ?v_213 (= x_73 4)) ?v_214) (= x_50 ?v_88)) ?v_173) ?v_133) ?v_174) ?v_135) ?v_136) ?v_215) ?v_138) ?v_216) ?v_140) ?v_148)) (and (and (and (and (and (and (and ?v_212 x_29) ?v_141) ?v_120) ?v_206) ?v_148) ?v_149) ?v_150)) ?v_114) ?v_105) ?v_115) ?v_142) ?v_143) ?v_144) ?v_145) ?v_146) ?v_147) ?v_151) ?v_152) ?v_153)) (and (and (and (and (and (and (and (and (and (and (and (and (or (or (or (or (or (or (or (or (or (and (and (and (and (and ?v_218 ?v_220) ?v_217) (= x_48 (+ x_1 42))) ?v_104) ?v_152) (and (and (and (and (and (and ?v_218 x_30) ?v_120) ?v_226) ?v_151) ?v_152) ?v_153)) (and (and (and (and (and ?v_224 ?v_220) ?v_221) ?v_228) ?v_229) ?v_152)) (and (and (and (and (and (and (and ?v_224 x_30) ?v_123) ?v_120) ?v_221) (= x_48 (- ?v_225 x_23))) ?v_226) ?v_152)) (and (and (and (and (and (and (and ?v_227 x_30) ?v_123) ?v_120) ?v_33) ?v_230) ?v_231) ?v_226)) (and (and (and (and (and ?v_227 ?v_220) ?v_228) ?v_229) ?v_151) ?v_152)) (and (and (and (and (and (and (and (or ?v_224 ?v_227) x_30) ?v_141) ?v_120) ?v_33) ?v_230) ?v_231) ?v_226)) (and (and (and (and (and ?v_233 (not (= ?v_89 5))) ?v_234) (= x_51 x_74)) ?v_104) ?v_151)) (and (and (and (and (and (and (and (and (and (and (and (and (and ?v_233 (= x_74 5)) ?v_234) (= x_51 ?v_89)) ?v_173) ?v_133) ?v_174) ?v_135) ?v_136) ?v_137) ?v_235) ?v_236) ?v_140) ?v_151)) (and (and (and (and (and (and (and ?v_232 x_30) ?v_141) ?v_120) ?v_226) ?v_151) ?v_152) ?v_153)) ?v_114) ?v_105) ?v_115) ?v_142) ?v_143) ?v_144) ?v_145) ?v_146) ?v_147) ?v_148) ?v_149) ?v_150)) (= x_37 x_1)))) (or (or (or (or (or (or (and ?v_237 (= x_19 (ite (and (and (and (and (and ?v_238 ?v_239) ?v_240) ?v_241) ?v_242) ?v_243) 0 (ite ?v_255 1 6)))) (and ?v_254 (= x_19 (ite ?v_255 1 (ite ?v_277 2 6))))) (and ?v_276 (= x_19 (ite ?v_277 2 (ite ?v_296 3 6))))) (and ?v_295 (= x_19 (ite ?v_296 3 (ite ?v_277 2 x_69))))) (and ?v_297 (= x_19 (ite ?v_298 4 (ite ?v_322 5 6))))) (and ?v_321 (= x_19 (ite ?v_322 5 x_69)))) (and (and (and (and (and (and (or ?v_323 x_18) (or ?v_324 x_18)) (or (or x_16 ?v_5) x_18)) (or (or ?v_7 ?v_5) x_18)) (or ?v_323 ?v_6)) (or ?v_324 ?v_6)) (= x_19 6)))) (or (or (or (or (and ?v_335 (or (or (or (and ?v_334 (or (not ?v_327) (not ?v_38))) (and ?v_337 (or (not ?v_329) (not ?v_41)))) (and ?v_339 (or (not ?v_331) (not ?v_44)))) (and ?v_341 (or (not ?v_333) (not ?v_47))))) (and ?v_334 (or (or (or (and ?v_335 (or (not ?v_336) (not ?v_50))) (and ?v_337 (or (not ?v_338) (not ?v_54)))) (and ?v_339 (or (not ?v_340) (not ?v_57)))) (and ?v_341 (or (not ?v_342) (not ?v_60)))))) (and ?v_337 (or (or (or (and ?v_335 (or (not ?v_343) (not ?v_62))) (and ?v_334 (or (not ?v_344) (not ?v_63)))) (and ?v_339 (or (not ?v_345) (not ?v_64)))) (and ?v_341 (or (not ?v_346) (not ?v_65)))))) (and ?v_339 (or (or (or (and ?v_335 (or (not ?v_347) (not ?v_66))) (and ?v_334 (or (not ?v_348) (not ?v_67)))) (and ?v_337 (or (not ?v_349) (not ?v_68)))) (and ?v_341 (or (not ?v_350) (not ?v_69)))))) (and ?v_341 (or (or (or (and ?v_335 (or (not ?v_351) (not ?v_70))) (and ?v_334 (or (not ?v_352) (not ?v_71)))) (and ?v_337 (or (not ?v_353) (not ?v_72)))) (and ?v_339 (or (not ?v_354) (not ?v_73))))))) (or (or ?v_6 ?v_5) ?v_7))))))))))))))))))))))))))))))))))))))))))))))))))))))))))))))
(check-sat)
(exit)
